letting n_nurses=25
letting n_days=7
letting n_shift_types=4
letting max_covers=14
letting t_covers=87
letting covers=[4,14,3,0,12,5,1,0,3,4,14,0,1,1,0,0,3,0,1,0,0,2,1,0,0,8,10,0]
letting prefes=[3,1,3,3,1,3,3,1,3,3,3,1,3,1,1,3,1,1,1,1,3,3,3,1,1,3,3,1,1,1,1,1,3,3,3,3,1,3,1,1,1,2,2,1,1,1,1,1,1,3,1,1,3,3,3,3,1,1,1,1,3,3,3,3,3,3,3,1,3,2,2,3,3,3,3,3,3,3,3,1,3,3,3,3,1,1,1,1,3,3,3,1,3,3,3,3,3,1,1,3,1,1,3,3,3,3,3,3,3,3,3,1,1,1,1,1,3,3,3,1,3,3,3,3,3,1,1,3,3,1,3,3,3,3,3,3,3,3,3,1,3,3,1,1,3,3,3,1,1,3,3,1,3,1,1,3,3,1,1,1,1,3,3,1,3,3,3,1,3,1,1,1,3,3,3,1,3,3,3,1,3,1,1,3,3,1,3,3,3,3,3,1,3,3,3,1,3,1,3,3,3,3,3,1,3,3,3,1,3,1,1,3,3,1,3,3,3,3,3,1,3,3,3,1,3,1,1,1,1,1,1,1,3,3,3,1,3,1,1,3,3,1,3,3,3,3,3,1,1,1,1,1,3,1,1,1,3,3,3,1,3,1,3,1,3,1,1,3,3,1,3,3,3,1,3,1,3,3,3,1,3,1,1,1,3,1,3,1,3,3,3,1,3,1,1,3,3,1,3,3,3,3,3,1,3,1,3,1,3,1,3,3,3,3,1,1,3,3,1,1,3,1,1,3,3,1,3,3,3,3,1,1,3,3,1,1,3,1,1,1,3,3,3,1,3,3,1,1,3,1,1,3,3,3,3,3,3,3,1,1,3,3,3,1,1,1,1,1,1,1,3,1,3,3,1,1,1,1,1,1,3,1,3,3,3,3,1,1,1,1,3,1,3,3,1,1,1,3,1,1,3,3,3,1,1,1,1,1,3,1,3,3,3,3,3,1,1,3,1,1,3,1,1,1,3,3,1,1,3,3,3,1,1,1,1,1,3,3,3,3,3,3,3,1,3,3,1,1,3,1,1,1,3,3,3,3,1,1,3,1,1,1,1,1,3,1,1,1,1,1,3,1,3,3,3,3,3,3,1,1,3,1,3,1,3,3,3,3,3,1,1,3,3,3,3,3,3,3,3,3,3,1,3,1,3,1,1,1,1,3,3,1,3,3,3,3,3,1,1,3,3,1,3,3,3,3,3,3,1,3,3,1,3,1,3,3,3,3,1,1,3,1,3,1,3,2,2,3,3,1,3,3,3,1,3,1,3,3,1,1,3,3,3,3,3,3,3,3,3,3,3,3,3,1,1,3,3,1,3,3,3,3,3,3,3,3,3,3,3,1,1,1,3,3,3,3,3,3,3,1,3,1,1,3,1,1,3,3,3,3,3,1,3,3,3,3,3,1,1,1,3,3,3,1,3,3,3,1,3,1,1,3,3,1,3,3,3,3,3,1,3,3,3,1,3,1,1,1,3,3,3,1,1,1,3,1,3,2,2,3,3,1,1,1,1,1,3,1,3,3,3,1,3,3,1,1,3,1,3,1,1,1,1,1,3,2,2,3,1,3,3,3,1,1,1,1,3,1,3,1]
letting ub =  258
